XSym
0002
d105ae60b3656e9d9882098f12b0ebc2
6b
                                                                                                                                                                                                                                                                                                                                                                                                                                                                                                                                                                                                                                                                                                                                                                                                                                                                                                                                                                                                                                                             